p edge 20 47 10
v 3 3 5 8
v 1 11
v 1 12
v 2 14 16
v 1 15
v 3 6 9 17
v 2 13 18
v 3 1 2 19
v 3 4 7 20
v 1 10
e 1 2
e 1 5
e 1 7
e 1 11
e 1 14
e 1 17
e 2 6
e 2 9
e 2 11
e 2 14
e 2 17
e 2 18
e 2 19
e 3 6
e 3 8
e 3 10
e 3 20
e 4 6
e 4 7
e 4 17
e 5 8
e 5 16
e 6 7
e 6 8
e 6 12
e 6 13
e 6 15
e 6 17
e 7 8
e 7 10
e 7 17
e 7 19
e 8 11
e 8 13
e 8 15
e 8 19
e 8 20
e 9 10
e 9 11
e 9 15
e 9 17
e 10 11
e 10 18
e 11 13
e 12 20
e 13 14
e 13 17
